3 
4  46 
5  08 33 53 
6  12 26 41 55 
7  11 26 41 56 
8  11 26 41 55 
9  10 25 40 55 
10  10 25 40 55 
11  10 25 40 55 
12  10 25 40 56 
13  11 26 41 56 
14  11 26 42 57 
15  12 27 42 57 
16  12 27 42 57 
17  12 27 42 57 
18  12 27 42 57 
19  12 27 42 57 
20  13 27 42 57 
21  12 27 42 59 
22  13 29 53 
23 
0 
